9 25
0 1 2.5
1 2 3.1
2 3 4.4
3 4 2.2
4 5 5.0
5 6 1.8
6 7 3.6
7 8 2.7
8 0 4.9
0 2 2.0
0 3 6.8
1 3 2.9
1 4 5.7
2 4 1.5
2 5 4.1
3 5 2.3
3 6 5.4
4 6 2.0
4 7 3.8
5 7 1.9
5 8 4.6
6 8 2.1
1 8 6.2
0 5 7.3
2 8 5.5
4
